column=9;
row=9;
left=[3, 3, 3, 0, 0, 0, 0, 2, 0];
right=[0, 4, 4, 0, 3, 2, 3, 3, 2];
top=[0, 2, 0, 3, 3, 0, 3, 4, 1];
bottom=[3, 0, 0, 4, 3, 0, 0, 0, 0];
Board=[|0,8,2,0,5,0,0,0,9|1,0,0,4,2,0,0,6,0|5,0,0,7,0,8,0,0,3|6,5,0,9,0,0,1,0,0|0,1,4,2,3,0,5,0,0|0,3,7,0,0,0,0,0,0|3,4,0,0,9,0,0,0,0|0,0,0,3,7,0,0,0,0|0,9,5,1,6,2,3,0,0|]